NAME: tsp10
TYPE: TSP
COMMENT: 10-node problem
DIMENSION: 10
EDGE_WEIGHT_TYPE: EUC_2D
NODE_COORD_SECTION
1 10 10
2 20 20
3 30 10
4 40 40
5 50 50
6 10 50
7 30 30
8 40 10
9 20 40
10 50 10
EOF
